(declare-fun var0 () String)
(assert (str.in.re var0 (re.++ (re.+ (re.union (str.to.re "~") (str.to.re "00"))) (re.++ (re.* (re.union (str.to.re "||") (str.to.re "}"))) (re.++ (re.+ (re.+ (str.to.re "{"))) (re.++ (re.+ (re.union (str.to.re "___") (str.to.re "``"))) (re.++ (re.+ (re.+ (str.to.re "^^"))) (re.++ (re.* (re.union (str.to.re "\\\\") (str.to.re "]]]"))) (re.++ (re.* (re.* (str.to.re "["))) (re.++ (re.* (re.union (str.to.re "???") (str.to.re "@@@"))) (re.++ (re.* (re.union (str.to.re "===") (str.to.re ">>>"))) (re.++ (re.+ (re.+ (str.to.re "<"))) (re.++ (re.+ (re.* (str.to.re ";;"))) (re.++ (re.union (re.* (str.to.re "/")) (re.+ (str.to.re "::"))) (re.++ (re.* (re.+ (str.to.re "..."))) (re.++ (re.union (re.+ (str.to.re ",")) (re.+ (str.to.re "-"))) (re.++ (re.union (re.+ (str.to.re "***")) (re.* (str.to.re "+"))) (re.++ (re.+ (re.* (str.to.re "))"))) (re.++ (re.union (re.union (str.to.re "%") (str.to.re "&")) (re.union (str.to.re "''") (str.to.re "("))) (re.++ (re.* (re.+ (str.to.re "$$"))) (re.++ (re.+ (re.union (str.to.re """""") (str.to.re "###"))) (re.++ (re.+ (re.+ (str.to.re "!"))) (re.++ (re.* (re.* (str.to.re "ZZZ"))) (re.++ (re.+ (re.union (str.to.re "XXX") (str.to.re "YY"))) (re.++ (re.union (re.* (str.to.re "VVV")) (re.+ (str.to.re "W"))) (re.++ (re.+ (re.+ (str.to.re "U"))) (re.++ (re.union (re.union (str.to.re "RRR") (str.to.re "SS")) (re.+ (str.to.re "TT"))) (re.++ (re.* (re.union (str.to.re "PPP") (str.to.re "QQ"))) (re.++ (re.* (re.* (str.to.re "OOO"))) (re.++ (re.* (re.* (str.to.re "NNN"))) (re.++ (re.union (re.union (str.to.re "KK") (str.to.re "LLL")) (re.+ (str.to.re "M"))) (re.++ (re.* (re.union (str.to.re "I") (str.to.re "JJ"))) (re.++ (re.union (re.+ (str.to.re "FFF")) (re.union (str.to.re "GGG") (str.to.re "HHH"))) (re.++ (re.* (re.+ (str.to.re "EEE"))) (re.++ (re.* (re.+ (str.to.re "DD"))) (re.++ (re.union (re.+ (str.to.re "BBB")) (re.+ (str.to.re "CCC"))) (re.++ (re.union (re.+ (str.to.re "yy")) (re.union (str.to.re "zz") (str.to.re "A"))) (re.++ (re.* (re.union (str.to.re "ww") (str.to.re "xxx"))) (re.++ (re.union (re.+ (str.to.re "uuu")) (re.* (str.to.re "vv"))) (re.++ (re.union (re.* (str.to.re "s")) (re.+ (str.to.re "tt"))) (re.++ (re.union (re.union (str.to.re "ooo") (str.to.re "p")) (re.union (str.to.re "q") (str.to.re "r"))) (re.++ (re.union (re.+ (str.to.re "mm")) (re.* (str.to.re "nn"))) (re.++ (re.+ (re.union (str.to.re "kk") (str.to.re "l"))) (re.++ (re.* (re.* (str.to.re "jj"))) (re.++ (re.+ (re.union (str.to.re "hhh") (str.to.re "i"))) (re.++ (re.+ (re.* (str.to.re "gg"))) (re.++ (re.+ (re.+ (str.to.re "ff"))) (re.++ (re.union (re.union (str.to.re "ccc") (str.to.re "ddd")) (re.* (str.to.re "eee"))) (re.++ (re.+ (re.union (str.to.re "a") (str.to.re "bb"))) (re.++ (re.* (re.+ (str.to.re "99"))) (re.++ (re.* (re.union (str.to.re "77") (str.to.re "8"))) (re.++ (re.union (re.+ (str.to.re "55")) (re.* (str.to.re "6"))) (re.++ (re.union (re.+ (str.to.re "222")) (re.union (str.to.re "3") (str.to.re "4"))) (re.++ (re.union (re.+ (str.to.re "~~")) (re.union (str.to.re "00") (str.to.re "11"))) (re.++ (re.* (re.union (str.to.re "|") (str.to.re "}"))) (re.++ (re.+ (re.+ (str.to.re "{{"))) (re.++ (re.* (re.* (str.to.re "``"))) (re.++ (re.+ (re.* (str.to.re "__"))) (re.++ (re.+ (re.+ (str.to.re "^^"))) (re.++ (re.+ (re.union (str.to.re "\\") (str.to.re "]]]"))) (re.++ (re.+ (re.* (str.to.re "["))) (re.++ (re.union (re.union (str.to.re ">>>") (str.to.re "?")) (re.* (str.to.re "@@"))) (re.++ (re.union (re.+ (str.to.re "<<")) (re.* (str.to.re "=="))) (re.++ (re.+ (re.* (str.to.re ";"))) (re.++ (re.union (re.* (str.to.re ".")) (re.union (str.to.re "///") (str.to.re ":::"))) (re.++ (re.* (re.* (str.to.re "---"))) (re.++ (re.+ (re.+ (str.to.re ",,,"))) (re.++ (re.union (re.* (str.to.re "*")) (re.* (str.to.re "+++"))) (re.++ (re.+ (re.+ (str.to.re "))"))) (re.++ (re.+ (re.* (str.to.re "(("))) (re.++ (re.* (re.* (str.to.re "'"))) (re.++ (re.union (re.union (str.to.re "$") (str.to.re "%")) (re.+ (str.to.re "&&"))) (re.++ (re.+ (re.* (str.to.re "##"))) (re.++ (re.* (re.union (str.to.re "!!") (str.to.re """"""""))) (re.++ (re.+ (re.+ (str.to.re "ZZ"))) (re.++ (re.union (re.+ (str.to.re "WW")) (re.union (str.to.re "X") (str.to.re "YY"))) (re.++ (re.+ (re.+ (str.to.re "VVV"))) (re.++ (re.* (re.+ (str.to.re "UUU"))) (re.++ (re.* (re.* (str.to.re "T"))) (re.++ (re.union (re.+ (str.to.re "RR")) (re.+ (str.to.re "S"))) (re.++ (re.+ (re.union (str.to.re "PPP") (str.to.re "QQQ"))) (re.++ (re.union (re.+ (str.to.re "MM")) (re.union (str.to.re "N") (str.to.re "O"))) (re.++ (re.* (re.+ (str.to.re "LLL"))) (re.++ (re.union (re.* (str.to.re "J")) (re.* (str.to.re "KKK"))) (re.++ (re.union (re.union (str.to.re "GG") (str.to.re "HH")) (re.* (str.to.re "I"))) (re.++ (re.union (re.union (str.to.re "CCC") (str.to.re "DD")) (re.union (str.to.re "E") (str.to.re "FFF"))) (re.++ (re.union (re.union (str.to.re "zz") (str.to.re "A")) (re.+ (str.to.re "BB"))) (re.++ (re.union (re.* (str.to.re "x")) (re.+ (str.to.re "yyy"))) (re.++ (re.+ (re.union (str.to.re "vvv") (str.to.re "ww"))) (re.++ (re.* (re.+ (str.to.re "uu"))) (re.++ (re.* (re.+ (str.to.re "ttt"))) (re.++ (re.* (re.union (str.to.re "r") (str.to.re "ss"))) (re.++ (re.* (re.+ (str.to.re "qqq"))) (re.++ (re.union (re.* (str.to.re "oo")) (re.+ (str.to.re "pp"))) (re.++ (re.union (re.union (str.to.re "lll") (str.to.re "mmm")) (re.* (str.to.re "nn"))) (re.++ (re.+ (re.+ (str.to.re "kk"))) (re.++ (re.union (re.union (str.to.re "g") (str.to.re "hh")) (re.union (str.to.re "i") (str.to.re "jjj"))) (re.++ (re.union (re.+ (str.to.re "e")) (re.+ (str.to.re "f"))) (re.++ (re.+ (re.* (str.to.re "d"))) (re.++ (re.union (re.union (str.to.re "a") (str.to.re "b")) (re.* (str.to.re "c"))) (re.++ (re.* (re.+ (str.to.re "9"))) (re.++ (re.* (re.union (str.to.re "77") (str.to.re "8"))) (re.++ (re.union (re.+ (str.to.re "44")) (re.union (str.to.re "555") (str.to.re "6"))) (re.++ (re.* (re.* (str.to.re "3"))) (re.++ (re.union (re.* (str.to.re "00")) (re.union (str.to.re "1") (str.to.re "2"))) (re.++ (re.union (re.* (str.to.re "}}}")) (re.* (str.to.re "~~"))) (re.++ (re.+ (re.+ (str.to.re "|||"))) (re.++ (re.* (re.+ (str.to.re "{{"))) (re.++ (re.* (re.union (str.to.re "_") (str.to.re "``"))) (re.++ (re.+ (re.* (str.to.re "^"))) (re.++ (re.* (re.* (str.to.re "]]"))) (re.++ (re.union (re.* (str.to.re "@@@")) (re.union (str.to.re "[[[") (str.to.re "\\\\\\"))) (re.++ (re.* (re.* (str.to.re "??"))) (re.++ (re.+ (re.* (str.to.re ">>>"))) (re.++ (re.+ (re.+ (str.to.re "=="))) (re.++ (re.+ (re.* (str.to.re "<<<"))) (re.++ (re.union (re.* (str.to.re ":::")) (re.* (str.to.re ";;"))) (re.++ (re.* (re.* (str.to.re "///"))) (re.++ (re.+ (re.* (str.to.re "..."))) (re.++ (re.union (re.+ (str.to.re ",")) (re.+ (str.to.re "--"))) (re.++ (re.* (re.union (str.to.re "*") (str.to.re "++"))) (re.++ (re.+ (re.union (str.to.re "((") (str.to.re "))"))) (re.++ (re.* (re.+ (str.to.re "'"))) (re.++ (re.union (re.union (str.to.re "$$$") (str.to.re "%%%")) (re.+ (str.to.re "&&&"))) (re.++ (re.+ (re.* (str.to.re "#"))) (re.++ (re.+ (re.+ (str.to.re """"))) (re.++ (re.+ (re.union (str.to.re "ZZ") (str.to.re "!!"))) (re.++ (re.union (re.+ (str.to.re "XXX")) (re.* (str.to.re "Y"))) (re.++ (re.+ (re.* (str.to.re "W"))) (re.++ (re.* (re.+ (str.to.re "V"))) (re.++ (re.union (re.* (str.to.re "S")) (re.union (str.to.re "T") (str.to.re "UUU"))) (re.++ (re.union (re.+ (str.to.re "QQQ")) (re.* (str.to.re "RRR"))) (re.++ (re.union (re.* (str.to.re "O")) (re.* (str.to.re "PP"))) (re.++ (re.* (re.* (str.to.re "N"))) (re.++ (re.union (re.+ (str.to.re "K")) (re.union (str.to.re "L") (str.to.re "MMM"))) (re.++ (re.+ (re.+ (str.to.re "J"))) (re.++ (re.union (re.+ (str.to.re "HH")) (re.* (str.to.re "II"))) (re.++ (re.* (re.* (str.to.re "GG"))) (re.++ (re.* (re.+ (str.to.re "F"))) (re.++ (re.* (re.* (str.to.re "E"))) (re.++ (re.* (re.+ (str.to.re "D"))) (re.++ (re.union (re.+ (str.to.re "BBB")) (re.+ (str.to.re "CCC"))) (re.++ (re.* (re.+ (str.to.re "A"))) (re.++ (re.* (re.+ (str.to.re "zzz"))) (re.++ (re.union (re.+ (str.to.re "xxx")) (re.+ (str.to.re "yy"))) (re.++ (re.+ (re.* (str.to.re "ww"))) (re.++ (re.+ (re.union (str.to.re "uu") (str.to.re "vv"))) (re.++ (re.* (re.+ (str.to.re "tt"))) (re.++ (re.+ (re.* (str.to.re "s"))) (re.++ (re.union (re.union (str.to.re "oo") (str.to.re "ppp")) (re.union (str.to.re "qqq") (str.to.re "rr"))) (re.++ (re.union (re.* (str.to.re "mmm")) (re.* (str.to.re "nnn"))) (re.++ (re.* (re.+ (str.to.re "l"))) (re.++ (re.union (re.* (str.to.re "jjj")) (re.+ (str.to.re "kk"))) (re.++ (re.+ (re.* (str.to.re "i"))) (re.++ (re.union (re.union (str.to.re "fff") (str.to.re "gg")) (re.* (str.to.re "h"))) (re.++ (re.+ (re.* (str.to.re "ee"))) (re.++ (re.union (re.union (str.to.re "bbb") (str.to.re "ccc")) (re.+ (str.to.re "d"))) (re.++ (re.union (re.* (str.to.re "999")) (re.+ (str.to.re "aaa"))) (re.++ (re.+ (re.union (str.to.re "77") (str.to.re "88"))) (re.++ (re.* (re.union (str.to.re "5") (str.to.re "6"))) (re.++ (re.* (re.* (str.to.re "444"))) (re.++ (re.+ (re.* (str.to.re "333"))) (re.++ (re.* (re.+ (str.to.re "222"))) (re.union (re.+ (str.to.re "00")) (re.+ (str.to.re "11"))))))))))))))))))))))))))))))))))))))))))))))))))))))))))))))))))))))))))))))))))))))))))))))))))))))))))))))))))))))))))))))))))))))))))))))))))))))))))))))))))))))
(check-sat)